50
12418

134 741
733 340
836 666
87 966
902 243
678 207
395 524
746 778
284 984
388 502
201 219
994 24
83 994
307 71
220 496
185 940
207 924
729 787
875 906
326 578
196 115
115 416
195 191
87 970
951 348
573 241
940 710
433 450
105 751
547 645
331 11
675 362
881 812
400 804
219 796
643 187
901 234
709 613
628 372
663 565
935 184
57 28
764 236
741 811
578 599
834 810
459 495
35 873
354 502
827 196
